24
1 2
1 3
1 4
1 5
1 7
1 9
1 13
1 15
1 18
1 20
2 3
2 6
2 8
2 12
2 14
2 17
2 19
3 5
3 7
3 10
3 13
3 16
3 18
3 21
4 5
4 6
4 10
4 12
4 16
4 17
4 21
5 8
5 9
5 14
5 15
5 19
5 20
6 11
6 13
6 15
6 22
7 11
7 12
7 14
7 22
8 11
8 13
8 16
8 22
9 11
9 12
9 16
9 22
10 11
10 14
10 15
10 22
11 17
11 18
11 19
11 20
11 21
12 5
12 23
13 23
14 23
15 23
16 23
17 7
17 11
17 15
17 23
18 23
19 23
20 1
20 2
20 3
20 4
20 5
20 9
20 16
20 8
20 16
20 21
20 8
20 23
20 24
21 23
22 18
22 23
24 1